50 4
14 43 26 84 85 18 10 87 94 80 85 61 38 80 11 78 44 13 59 59 99 15 31 62 91 41 100 59 14 99 70 21 87 75 38 62 17 36 11 27 47 97 94 20 42 71 69 22 26 92
37 29 14 18 74 69 88 32 74 88 31 23 13 96 69 49 67 30 34 93 11 82 37 34 76 47 64 81 55 13 36 16 91 79 45 94 16 96 50 38 36 20 64 66 96 84 84 59 60 87
78 32 98 74 92 77 88 10 51 45 54 86 90 28 84 20 63 55 58 88 81 73 70 40 23 15 51 99 27 68 25 63 23 26 62 96 35 72 74 51 26 81 38 62 45 56 60 71 41 92
79 75 75 16 88 47 11 42 99 54 61 56 10 75 24 14 64 22 22 86 53 17 12 44 43 58 55 53 24 86 13 34 43 28 44 38 17 55 88 46 61 30 69 12 21 68 42 71 28 22
